webassembly/ejemplos_dzn/folder13_json_77.dzn
TERM = { '.', 's(5)', 's(2)', 's(4)', 'in_1', 'local_0', 'local_1', 'in_6', 'in_2', 'in_4', 'in_3', 's(1)', 's(0)', 'in_5', 's(3)', 'in_0'};
null = '.';
s = 13;
n = 12;
ndeps = 6;
max_registers_sz = 4;
NR = 1;
registers = [|'local_0', 's(4)'|];
dependencies = [|'i32.load_0', 'i32.store_2', |'i32.store_2', 'i32.store16_3', |'i32.store16_3', 'i32.store8_6', |'i32.store8_6', 'i32.load16_s_9', |'i32.store8_6', 'i32.load16_u_10', |'i32.store8_6', 'i32.load8_s_12'|];
GET_ENUM = { GET1, GET2, GET3, GET4, GET5};
SET_ENUM = { SET1, SET2, SET3, SET4, SET5};
TEE_ENUM = { TEE1, TEE2, TEE3, TEE4, TEE5};
N = 10;
OP = { 'i32.load_0', 'i32.add_0', 'i32.store_2', 'i32.store16_3', 'i32.sub_0', 'i32.store8_6', 'i32.load16_s_9', 'i32.load16_u_10', 'i32.load8_s_12', 'local.get_0' };
in_ops = [1, 2, 2, 2, 2, 2, 1, 1, 1, 0 ];
out_ops = [1, 1, 0, 0, 1, 0, 1, 1, 1, 1 ];
in1 = ['in_0', 's(0)', 's(1)', 'in_3', 'local_1', 's(2)', 'local_1', 's(3)', 's(4)', '.' ];
in2 = ['.', 'in_1', 'in_2', 'in_4', 'in_5', 'in_6', '.', '.', '.', '.' ];
in3 = ['.', '.', '.', '.', '.', '.', '.', '.', '.', '.' ];
out1 = ['s(0)', 's(1)', '.', '.', 's(2)', '.', 's(3)', 's(4)', 's(5)', 'local_1' ];
out2 = ['.', '.', '.', '.', '.', '.', '.', '.', '.', '.' ];
out3 = ['.', '.', '.', '.', '.', '.', '.', '.', '.', '.' ];
comm = [false, true, false, false, false, false, false, false, false, false ];
gas = [1, 1, 1, 1, 1, 1, 1, 1, 1, 1 ];
sz = [1, 1, 1, 1, 1, 1, 1, 1, 1, 1 ];
stor = [false, false, true, true, false, true, false, false, false, false ];
lb = [ 1, 1, 1, 1, 1, 1, 1, 1, 1, 1 ];
ub = [ 13, 13, 13, 13, 13, 13, 13, 13, 13, 13 ];
startstack = [ 'in_0', 'in_1', 'in_2', 'in_3', 'in_4', 'in_5', 'in_6', null, null, null, null, null ];
endstack = [ 's(5)', 'local_0', null, null, null, null, null, null, null, null, null, null ];
