webassembly/ejemplos_results/13/folder13_json_77.txt
=====UNSATISFIABLE=====
% time elapsed: 0.89 s
